% Logging successfully configured
%%%mzn-stat: initTime=0.002931966
%%%mzn-stat: objective=642
%%%mzn-stat: nodes=618
%%%mzn-stat: restarts=0
%%%mzn-stat: peakDepth=180
%%%mzn-stat: solveTime=0.00473603
%%%mzn-stat: variables=386
%%%mzn-stat: propagators=264
%%%mzn-stat: failures=84
%%%mzn-stat: propagations=4164
%%%mzn-stat: nogoods=84
%%%mzn-stat: numAtomicConstraintsPropagated=0
%%%mzn-stat: allDifferentNumber1TotalHallSetSize=401
%%%mzn-stat: allDifferentNumber1NumberOfConflicts=83
%%%mzn-stat: allDifferentNumber1MaxHallSetSize=17
%%%mzn-stat: allDifferentNumber1PropagationsTotal=792
%%%mzn-stat: allDifferentNumber1PropagationsThatFoundConflict=83
%%%mzn-stat: circuitNumber2PropagationsThatFoundConflict=0
%%%mzn-stat: circuitNumber2TotalFixedEdgesAtConflict=0
%%%mzn-stat: circuitNumber2NumberOfConflicts=0
%%%mzn-stat: circuitNumber2PropagationsThatPruned=26
%%%mzn-stat: circuitNumber2PropagationsTotal=434
%%%mzn-stat: AverageConflictSize=4.654761904761905
%%%mzn-stat: NumUnitNogoodsLearned=0
%%%mzn-stat: AverageLearnedNogoodLength=4.833333333333333
%%%mzn-stat: AverageBacktrackAmount=0
%%%mzn-stat: AverageLbd=4.666666666666667
%%%mzn-stat: 2AutonomousSearchNumBackupCalled=162
%%%mzn-stat: 2AutonomousSearchNumPredicatesRemoved=0
%%%mzn-stat: 2AutonomousSearchNumCalls=163
%%%mzn-stat: 2AutonomousSearchNumPredicatesAdded=179
%%%mzn-stat: 2AutonomousSearchAverageSizeOfHeap=1.098159509202454
%%%mzn-stat: 2AutonomousSearchNumAssignedPredicatesEncountered=179
%%%mzn-stat-end
maxleg = 642;
succ = array1d(1..20,[4, 5, 9, 3, 6, 1, 8, 2, 10, 11, 17, 18, 7, 15, 19, 12, 20, 13, 16, 14]);
% time elapsed: 0.25 s
----------
%%%mzn-stat: initTime=0.002931966
%%%mzn-stat: objective=553
%%%mzn-stat: nodes=839
%%%mzn-stat: restarts=0
%%%mzn-stat: peakDepth=180
%%%mzn-stat: solveTime=0.005874964
%%%mzn-stat: variables=386
%%%mzn-stat: propagators=264
%%%mzn-stat: failures=106
%%%mzn-stat: propagations=5133
%%%mzn-stat: nogoods=106
%%%mzn-stat: numAtomicConstraintsPropagated=0
%%%mzn-stat: allDifferentNumber1TotalHallSetSize=510
%%%mzn-stat: allDifferentNumber1NumberOfConflicts=104
%%%mzn-stat: allDifferentNumber1MaxHallSetSize=17
%%%mzn-stat: allDifferentNumber1PropagationsTotal=913
%%%mzn-stat: allDifferentNumber1PropagationsThatFoundConflict=104
%%%mzn-stat: circuitNumber2PropagationsThatFoundConflict=1
%%%mzn-stat: circuitNumber2TotalFixedEdgesAtConflict=13
%%%mzn-stat: circuitNumber2NumberOfConflicts=1
%%%mzn-stat: circuitNumber2PropagationsThatPruned=30
%%%mzn-stat: circuitNumber2PropagationsTotal=501
%%%mzn-stat: AverageConflictSize=4.811320754716981
%%%mzn-stat: NumUnitNogoodsLearned=0
%%%mzn-stat: AverageLearnedNogoodLength=5.622641509433962
%%%mzn-stat: AverageBacktrackAmount=0
%%%mzn-stat: AverageLbd=5.10377358490566
%%%mzn-stat: 2AutonomousSearchNumBackupCalled=313
%%%mzn-stat: 2AutonomousSearchNumPredicatesRemoved=0
%%%mzn-stat: 2AutonomousSearchNumCalls=315
%%%mzn-stat: 2AutonomousSearchNumPredicatesAdded=290
%%%mzn-stat: 2AutonomousSearchAverageSizeOfHeap=1.273015873015873
%%%mzn-stat: 2AutonomousSearchNumAssignedPredicatesEncountered=401
%%%mzn-stat-end
maxleg = 553;
succ = array1d(1..20,[4, 5, 9, 3, 6, 1, 8, 2, 10, 12, 17, 18, 7, 13, 14, 11, 19, 16, 20, 15]);
% time elapsed: 0.25 s
----------
%%%mzn-stat: initTime=0.002931966
%%%mzn-stat: objective=546
%%%mzn-stat: nodes=1102
%%%mzn-stat: restarts=0
%%%mzn-stat: peakDepth=180
%%%mzn-stat: solveTime=0.007469871
%%%mzn-stat: variables=386
%%%mzn-stat: propagators=264
%%%mzn-stat: failures=137
%%%mzn-stat: propagations=6486
%%%mzn-stat: nogoods=137
%%%mzn-stat: numAtomicConstraintsPropagated=0
%%%mzn-stat: allDifferentNumber1TotalHallSetSize=690
%%%mzn-stat: allDifferentNumber1NumberOfConflicts=135
%%%mzn-stat: allDifferentNumber1MaxHallSetSize=17
%%%mzn-stat: allDifferentNumber1PropagationsTotal=1115
%%%mzn-stat: allDifferentNumber1PropagationsThatFoundConflict=135
%%%mzn-stat: circuitNumber2PropagationsThatFoundConflict=1
%%%mzn-stat: circuitNumber2TotalFixedEdgesAtConflict=13
%%%mzn-stat: circuitNumber2NumberOfConflicts=1
%%%mzn-stat: circuitNumber2PropagationsThatPruned=36
%%%mzn-stat: circuitNumber2PropagationsTotal=617
%%%mzn-stat: AverageConflictSize=5.54014598540146
%%%mzn-stat: NumUnitNogoodsLearned=0
%%%mzn-stat: AverageLearnedNogoodLength=6.45985401459854
%%%mzn-stat: AverageBacktrackAmount=0
%%%mzn-stat: AverageLbd=5.554744525547445
%%%mzn-stat: 2AutonomousSearchNumBackupCalled=462
%%%mzn-stat: 2AutonomousSearchNumPredicatesRemoved=0
%%%mzn-stat: 2AutonomousSearchNumCalls=465
%%%mzn-stat: 2AutonomousSearchNumPredicatesAdded=405
%%%mzn-stat: 2AutonomousSearchAverageSizeOfHeap=1.410752688172043
%%%mzn-stat: 2AutonomousSearchNumAssignedPredicatesEncountered=656
%%%mzn-stat-end
maxleg = 546;
succ = array1d(1..20,[4, 5, 9, 3, 14, 1, 6, 2, 10, 11, 17, 18, 7, 13, 19, 12, 20, 8, 16, 15]);
% time elapsed: 0.25 s
----------
%%%mzn-stat: initTime=0.002931966
%%%mzn-stat: objective=520
%%%mzn-stat: nodes=1291
%%%mzn-stat: restarts=0
%%%mzn-stat: peakDepth=180
%%%mzn-stat: solveTime=0.008407047
%%%mzn-stat: variables=386
%%%mzn-stat: propagators=264
%%%mzn-stat: failures=152
%%%mzn-stat: propagations=7302
%%%mzn-stat: nogoods=152
%%%mzn-stat: numAtomicConstraintsPropagated=0
%%%mzn-stat: allDifferentNumber1TotalHallSetSize=771
%%%mzn-stat: allDifferentNumber1NumberOfConflicts=150
%%%mzn-stat: allDifferentNumber1MaxHallSetSize=17
%%%mzn-stat: allDifferentNumber1PropagationsTotal=1197
%%%mzn-stat: allDifferentNumber1PropagationsThatFoundConflict=150
%%%mzn-stat: circuitNumber2PropagationsThatFoundConflict=1
%%%mzn-stat: circuitNumber2TotalFixedEdgesAtConflict=13
%%%mzn-stat: circuitNumber2NumberOfConflicts=1
%%%mzn-stat: circuitNumber2PropagationsThatPruned=37
%%%mzn-stat: circuitNumber2PropagationsTotal=662
%%%mzn-stat: AverageConflictSize=5.822368421052632
%%%mzn-stat: NumUnitNogoodsLearned=0
%%%mzn-stat: AverageLearnedNogoodLength=7.151315789473684
%%%mzn-stat: AverageBacktrackAmount=0
%%%mzn-stat: AverageLbd=5.8618421052631575
%%%mzn-stat: 2AutonomousSearchNumBackupCalled=610
%%%mzn-stat: 2AutonomousSearchNumPredicatesRemoved=0
%%%mzn-stat: 2AutonomousSearchNumCalls=614
%%%mzn-stat: 2AutonomousSearchNumPredicatesAdded=540
%%%mzn-stat: 2AutonomousSearchAverageSizeOfHeap=1.5358306188925082
%%%mzn-stat: 2AutonomousSearchNumAssignedPredicatesEncountered=943
%%%mzn-stat-end
maxleg = 520;
succ = array1d(1..20,[4, 5, 9, 3, 14, 1, 6, 2, 10, 12, 17, 18, 7, 13, 8, 11, 19, 16, 20, 15]);
% time elapsed: 0.25 s
----------
%%%mzn-stat: initTime=0.002931966
%%%mzn-stat: objective=500
%%%mzn-stat: nodes=1530
%%%mzn-stat: restarts=0
%%%mzn-stat: peakDepth=180
%%%mzn-stat: solveTime=0.009848287
%%%mzn-stat: variables=386
%%%mzn-stat: propagators=264
%%%mzn-stat: failures=176
%%%mzn-stat: propagations=8611
%%%mzn-stat: nogoods=176
%%%mzn-stat: numAtomicConstraintsPropagated=0
%%%mzn-stat: allDifferentNumber1TotalHallSetSize=937
%%%mzn-stat: allDifferentNumber1NumberOfConflicts=173
%%%mzn-stat: allDifferentNumber1MaxHallSetSize=17
%%%mzn-stat: allDifferentNumber1PropagationsTotal=1394
%%%mzn-stat: allDifferentNumber1PropagationsThatFoundConflict=173
%%%mzn-stat: circuitNumber2PropagationsThatFoundConflict=2
%%%mzn-stat: circuitNumber2TotalFixedEdgesAtConflict=30
%%%mzn-stat: circuitNumber2NumberOfConflicts=2
%%%mzn-stat: circuitNumber2PropagationsThatPruned=39
%%%mzn-stat: circuitNumber2PropagationsTotal=759
%%%mzn-stat: AverageConflictSize=6.4147727272727275
%%%mzn-stat: NumUnitNogoodsLearned=0
%%%mzn-stat: AverageLearnedNogoodLength=7.4602272727272725
%%%mzn-stat: AverageBacktrackAmount=0
%%%mzn-stat: AverageLbd=5.954545454545454
%%%mzn-stat: 2AutonomousSearchNumBackupCalled=742
%%%mzn-stat: 2AutonomousSearchNumPredicatesRemoved=0
%%%mzn-stat: 2AutonomousSearchNumCalls=747
%%%mzn-stat: 2AutonomousSearchNumPredicatesAdded=649
%%%mzn-stat: 2AutonomousSearchAverageSizeOfHeap=1.7014725568942437
%%%mzn-stat: 2AutonomousSearchNumAssignedPredicatesEncountered=1271
%%%mzn-stat-end
maxleg = 500;
succ = array1d(1..20,[4, 5, 9, 3, 14, 1, 6, 2, 11, 13, 16, 18, 7, 15, 20, 12, 10, 8, 17, 19]);
% time elapsed: 0.25 s
----------
%%%mzn-stat: initTime=0.002931966
%%%mzn-stat: objective=488
%%%mzn-stat: nodes=1745
%%%mzn-stat: restarts=0
%%%mzn-stat: peakDepth=180
%%%mzn-stat: solveTime=0.010876564
%%%mzn-stat: variables=386
%%%mzn-stat: propagators=264
%%%mzn-stat: failures=196
%%%mzn-stat: propagations=9733
%%%mzn-stat: nogoods=196
%%%mzn-stat: numAtomicConstraintsPropagated=0
%%%mzn-stat: allDifferentNumber1TotalHallSetSize=1010
%%%mzn-stat: allDifferentNumber1NumberOfConflicts=193
%%%mzn-stat: allDifferentNumber1MaxHallSetSize=17
%%%mzn-stat: allDifferentNumber1PropagationsTotal=1534
%%%mzn-stat: allDifferentNumber1PropagationsThatFoundConflict=193
%%%mzn-stat: circuitNumber2PropagationsThatFoundConflict=2
%%%mzn-stat: circuitNumber2TotalFixedEdgesAtConflict=30
%%%mzn-stat: circuitNumber2NumberOfConflicts=2
%%%mzn-stat: circuitNumber2PropagationsThatPruned=40
%%%mzn-stat: circuitNumber2PropagationsTotal=841
%%%mzn-stat: AverageConflictSize=6.392857142857143
%%%mzn-stat: NumUnitNogoodsLearned=0
%%%mzn-stat: AverageLearnedNogoodLength=7.3520408163265305
%%%mzn-stat: AverageBacktrackAmount=0
%%%mzn-stat: AverageLbd=5.826530612244898
%%%mzn-stat: 2AutonomousSearchNumBackupCalled=868
%%%mzn-stat: 2AutonomousSearchNumPredicatesRemoved=0
%%%mzn-stat: 2AutonomousSearchNumCalls=874
%%%mzn-stat: 2AutonomousSearchNumPredicatesAdded=725
%%%mzn-stat: 2AutonomousSearchAverageSizeOfHeap=1.8409610983981692
%%%mzn-stat: 2AutonomousSearchNumAssignedPredicatesEncountered=1609
%%%mzn-stat-end
maxleg = 488;
succ = array1d(1..20,[4, 5, 9, 3, 14, 1, 6, 10, 11, 12, 19, 18, 7, 13, 2, 17, 20, 16, 8, 15]);
% time elapsed: 0.25 s
----------
%%%mzn-stat: initTime=0.002931966
%%%mzn-stat: objective=414
%%%mzn-stat: nodes=1886
%%%mzn-stat: restarts=0
%%%mzn-stat: peakDepth=180
%%%mzn-stat: solveTime=0.011836258
%%%mzn-stat: variables=386
%%%mzn-stat: propagators=264
%%%mzn-stat: failures=211
%%%mzn-stat: propagations=10556
%%%mzn-stat: nogoods=211
%%%mzn-stat: numAtomicConstraintsPropagated=0
%%%mzn-stat: allDifferentNumber1TotalHallSetSize=1075
%%%mzn-stat: allDifferentNumber1NumberOfConflicts=207
%%%mzn-stat: allDifferentNumber1MaxHallSetSize=17
%%%mzn-stat: allDifferentNumber1PropagationsTotal=1611
%%%mzn-stat: allDifferentNumber1PropagationsThatFoundConflict=207
%%%mzn-stat: circuitNumber2PropagationsThatFoundConflict=3
%%%mzn-stat: circuitNumber2TotalFixedEdgesAtConflict=46
%%%mzn-stat: circuitNumber2NumberOfConflicts=3
%%%mzn-stat: circuitNumber2PropagationsThatPruned=48
%%%mzn-stat: circuitNumber2PropagationsTotal=885
%%%mzn-stat: AverageConflictSize=6.511848341232228
%%%mzn-stat: NumUnitNogoodsLearned=0
%%%mzn-stat: AverageLearnedNogoodLength=7.76303317535545
%%%mzn-stat: AverageBacktrackAmount=0
%%%mzn-stat: AverageLbd=5.985781990521327
%%%mzn-stat: 2AutonomousSearchNumBackupCalled=974
%%%mzn-stat: 2AutonomousSearchNumPredicatesRemoved=0
%%%mzn-stat: 2AutonomousSearchNumCalls=981
%%%mzn-stat: 2AutonomousSearchNumPredicatesAdded=906
%%%mzn-stat: 2AutonomousSearchAverageSizeOfHeap=2.0316004077471965
%%%mzn-stat: 2AutonomousSearchNumAssignedPredicatesEncountered=1993
%%%mzn-stat-end
maxleg = 414;
succ = array1d(1..20,[4, 5, 9, 3, 14, 1, 6, 13, 10, 11, 17, 18, 7, 19, 2, 12, 20, 8, 16, 15]);
% time elapsed: 0.25 s
----------
%%%mzn-stat: initTime=0.002931966
%%%mzn-stat: objective=412
%%%mzn-stat: nodes=2023
%%%mzn-stat: restarts=0
%%%mzn-stat: peakDepth=180
%%%mzn-stat: solveTime=0.012240894
%%%mzn-stat: variables=386
%%%mzn-stat: propagators=264
%%%mzn-stat: failures=214
%%%mzn-stat: propagations=11156
%%%mzn-stat: nogoods=214
%%%mzn-stat: numAtomicConstraintsPropagated=0
%%%mzn-stat: allDifferentNumber1TotalHallSetSize=1089
%%%mzn-stat: allDifferentNumber1NumberOfConflicts=210
%%%mzn-stat: allDifferentNumber1MaxHallSetSize=17
%%%mzn-stat: allDifferentNumber1PropagationsTotal=1651
%%%mzn-stat: allDifferentNumber1PropagationsThatFoundConflict=210
%%%mzn-stat: circuitNumber2PropagationsThatFoundConflict=3
%%%mzn-stat: circuitNumber2TotalFixedEdgesAtConflict=46
%%%mzn-stat: circuitNumber2NumberOfConflicts=3
%%%mzn-stat: circuitNumber2PropagationsThatPruned=49
%%%mzn-stat: circuitNumber2PropagationsTotal=909
%%%mzn-stat: AverageConflictSize=6.546728971962617
%%%mzn-stat: NumUnitNogoodsLearned=0
%%%mzn-stat: AverageLearnedNogoodLength=7.794392523364486
%%%mzn-stat: AverageBacktrackAmount=0
%%%mzn-stat: AverageLbd=5.97196261682243
%%%mzn-stat: 2AutonomousSearchNumBackupCalled=1085
%%%mzn-stat: 2AutonomousSearchNumPredicatesRemoved=0
%%%mzn-stat: 2AutonomousSearchNumCalls=1093
%%%mzn-stat: 2AutonomousSearchNumPredicatesAdded=945
%%%mzn-stat: 2AutonomousSearchAverageSizeOfHeap=2.1747483989021044
%%%mzn-stat: 2AutonomousSearchNumAssignedPredicatesEncountered=2377
%%%mzn-stat-end
maxleg = 412;
succ = array1d(1..20,[4, 5, 9, 3, 14, 1, 6, 13, 10, 12, 17, 18, 7, 8, 2, 11, 19, 16, 20, 15]);
% time elapsed: 0.25 s
----------
%%%mzn-stat: initTime=0.002931966
%%%mzn-stat: objective=411
%%%mzn-stat: nodes=2186
%%%mzn-stat: restarts=0
%%%mzn-stat: peakDepth=180
%%%mzn-stat: solveTime=0.013059737
%%%mzn-stat: variables=386
%%%mzn-stat: propagators=264
%%%mzn-stat: failures=227
%%%mzn-stat: propagations=11989
%%%mzn-stat: nogoods=227
%%%mzn-stat: numAtomicConstraintsPropagated=0
%%%mzn-stat: allDifferentNumber1TotalHallSetSize=1183
%%%mzn-stat: allDifferentNumber1NumberOfConflicts=223
%%%mzn-stat: allDifferentNumber1MaxHallSetSize=18
%%%mzn-stat: allDifferentNumber1PropagationsTotal=1738
%%%mzn-stat: allDifferentNumber1PropagationsThatFoundConflict=223
%%%mzn-stat: circuitNumber2PropagationsThatFoundConflict=3
%%%mzn-stat: circuitNumber2TotalFixedEdgesAtConflict=46
%%%mzn-stat: circuitNumber2NumberOfConflicts=3
%%%mzn-stat: circuitNumber2PropagationsThatPruned=55
%%%mzn-stat: circuitNumber2PropagationsTotal=953
%%%mzn-stat: AverageConflictSize=6.819383259911894
%%%mzn-stat: NumUnitNogoodsLearned=0
%%%mzn-stat: AverageLearnedNogoodLength=7.960352422907489
%%%mzn-stat: AverageBacktrackAmount=0
%%%mzn-stat: AverageLbd=5.854625550660793
%%%mzn-stat: 2AutonomousSearchNumBackupCalled=1200
%%%mzn-stat: 2AutonomousSearchNumPredicatesRemoved=0
%%%mzn-stat: 2AutonomousSearchNumCalls=1209
%%%mzn-stat: 2AutonomousSearchNumPredicatesAdded=1066
%%%mzn-stat: 2AutonomousSearchAverageSizeOfHeap=2.3176178660049627
%%%mzn-stat: 2AutonomousSearchNumAssignedPredicatesEncountered=2802
%%%mzn-stat-end
maxleg = 411;
succ = array1d(1..20,[4, 5, 9, 12, 14, 1, 6, 13, 10, 8, 3, 18, 7, 19, 2, 17, 20, 16, 11, 15]);
% time elapsed: 0.25 s
----------
%%%mzn-stat: initTime=0.002931966
%%%mzn-stat: objective=366
%%%mzn-stat: nodes=2321
%%%mzn-stat: restarts=0
%%%mzn-stat: peakDepth=180
%%%mzn-stat: solveTime=0.013677937
%%%mzn-stat: variables=386
%%%mzn-stat: propagators=264
%%%mzn-stat: failures=234
%%%mzn-stat: propagations=12678
%%%mzn-stat: nogoods=234
%%%mzn-stat: numAtomicConstraintsPropagated=0
%%%mzn-stat: allDifferentNumber1TotalHallSetSize=1240
%%%mzn-stat: allDifferentNumber1NumberOfConflicts=230
%%%mzn-stat: allDifferentNumber1MaxHallSetSize=18
%%%mzn-stat: allDifferentNumber1PropagationsTotal=1788
%%%mzn-stat: allDifferentNumber1PropagationsThatFoundConflict=230
%%%mzn-stat: circuitNumber2PropagationsThatFoundConflict=3
%%%mzn-stat: circuitNumber2TotalFixedEdgesAtConflict=46
%%%mzn-stat: circuitNumber2NumberOfConflicts=3
%%%mzn-stat: circuitNumber2PropagationsThatPruned=57
%%%mzn-stat: circuitNumber2PropagationsTotal=980
%%%mzn-stat: AverageConflictSize=7.05982905982906
%%%mzn-stat: NumUnitNogoodsLearned=0
%%%mzn-stat: AverageLearnedNogoodLength=8.196581196581196
%%%mzn-stat: AverageBacktrackAmount=0
%%%mzn-stat: AverageLbd=5.837606837606837
%%%mzn-stat: 2AutonomousSearchNumBackupCalled=1305
%%%mzn-stat: 2AutonomousSearchNumPredicatesRemoved=0
%%%mzn-stat: 2AutonomousSearchNumCalls=1315
%%%mzn-stat: 2AutonomousSearchNumPredicatesAdded=1158
%%%mzn-stat: 2AutonomousSearchAverageSizeOfHeap=2.4889733840304182
%%%mzn-stat: 2AutonomousSearchNumAssignedPredicatesEncountered=3273
%%%mzn-stat-end
maxleg = 366;
succ = array1d(1..20,[4, 5, 9, 12, 14, 7, 13, 6, 10, 8, 3, 18, 1, 19, 2, 17, 20, 16, 11, 15]);
% time elapsed: 0.25 s
----------
%%%mzn-stat: initTime=0.002931966
%%%mzn-stat: objective=358
%%%mzn-stat: nodes=2464
%%%mzn-stat: restarts=0
%%%mzn-stat: peakDepth=180
%%%mzn-stat: solveTime=0.014833598
%%%mzn-stat: variables=386
%%%mzn-stat: propagators=264
%%%mzn-stat: failures=252
%%%mzn-stat: propagations=13689
%%%mzn-stat: nogoods=252
%%%mzn-stat: numAtomicConstraintsPropagated=0
%%%mzn-stat: allDifferentNumber1TotalHallSetSize=1283
%%%mzn-stat: allDifferentNumber1NumberOfConflicts=245
%%%mzn-stat: allDifferentNumber1MaxHallSetSize=18
%%%mzn-stat: allDifferentNumber1PropagationsTotal=1888
%%%mzn-stat: allDifferentNumber1PropagationsThatFoundConflict=245
%%%mzn-stat: circuitNumber2PropagationsThatFoundConflict=5
%%%mzn-stat: circuitNumber2TotalFixedEdgesAtConflict=80
%%%mzn-stat: circuitNumber2NumberOfConflicts=5
%%%mzn-stat: circuitNumber2PropagationsThatPruned=69
%%%mzn-stat: circuitNumber2PropagationsTotal=1033
%%%mzn-stat: AverageConflictSize=7.099206349206349
%%%mzn-stat: NumUnitNogoodsLearned=0
%%%mzn-stat: AverageLearnedNogoodLength=8.523809523809524
%%%mzn-stat: AverageBacktrackAmount=0
%%%mzn-stat: AverageLbd=5.869047619047619
%%%mzn-stat: 2AutonomousSearchNumBackupCalled=1402
%%%mzn-stat: 2AutonomousSearchNumPredicatesRemoved=0
%%%mzn-stat: 2AutonomousSearchNumCalls=1413
%%%mzn-stat: 2AutonomousSearchNumPredicatesAdded=1357
%%%mzn-stat: 2AutonomousSearchAverageSizeOfHeap=2.6723283793347488
%%%mzn-stat: 2AutonomousSearchNumAssignedPredicatesEncountered=3776
%%%mzn-stat-end
maxleg = 358;
succ = array1d(1..20,[4, 5, 9, 12, 14, 7, 13, 6, 10, 16, 17, 18, 1, 8, 2, 11, 19, 3, 20, 15]);
% time elapsed: 0.25 s
----------
%%%mzn-stat: initTime=0.002931966
%%%mzn-stat: objective=356
%%%mzn-stat: nodes=2591
%%%mzn-stat: restarts=0
%%%mzn-stat: peakDepth=180
%%%mzn-stat: solveTime=0.015970322
%%%mzn-stat: variables=386
%%%mzn-stat: propagators=264
%%%mzn-stat: failures=264
%%%mzn-stat: propagations=14786
%%%mzn-stat: nogoods=264
%%%mzn-stat: numAtomicConstraintsPropagated=0
%%%mzn-stat: allDifferentNumber1TotalHallSetSize=1346
%%%mzn-stat: allDifferentNumber1NumberOfConflicts=257
%%%mzn-stat: allDifferentNumber1MaxHallSetSize=18
%%%mzn-stat: allDifferentNumber1PropagationsTotal=1986
%%%mzn-stat: allDifferentNumber1PropagationsThatFoundConflict=257
%%%mzn-stat: circuitNumber2PropagationsThatFoundConflict=5
%%%mzn-stat: circuitNumber2TotalFixedEdgesAtConflict=80
%%%mzn-stat: circuitNumber2NumberOfConflicts=5
%%%mzn-stat: circuitNumber2PropagationsThatPruned=89
%%%mzn-stat: circuitNumber2PropagationsTotal=1090
%%%mzn-stat: AverageConflictSize=7.257575757575758
%%%mzn-stat: NumUnitNogoodsLearned=0
%%%mzn-stat: AverageLearnedNogoodLength=9.102272727272727
%%%mzn-stat: AverageBacktrackAmount=0
%%%mzn-stat: AverageLbd=5.863636363636363
%%%mzn-stat: 2AutonomousSearchNumBackupCalled=1491
%%%mzn-stat: 2AutonomousSearchNumPredicatesRemoved=0
%%%mzn-stat: 2AutonomousSearchNumCalls=1503
%%%mzn-stat: 2AutonomousSearchNumPredicatesAdded=1584
%%%mzn-stat: 2AutonomousSearchAverageSizeOfHeap=2.856952761144378
%%%mzn-stat: 2AutonomousSearchNumAssignedPredicatesEncountered=4294
%%%mzn-stat-end
maxleg = 356;
succ = array1d(1..20,[4, 5, 9, 12, 15, 7, 13, 6, 10, 16, 17, 18, 1, 8, 14, 11, 19, 3, 20, 2]);
% time elapsed: 0.25 s
----------
%%%mzn-stat: initTime=0.002931966
%%%mzn-stat: objective=345
%%%mzn-stat: nodes=2724
%%%mzn-stat: restarts=0
%%%mzn-stat: peakDepth=180
%%%mzn-stat: solveTime=0.016579303
%%%mzn-stat: variables=386
%%%mzn-stat: propagators=264
%%%mzn-stat: failures=272
%%%mzn-stat: propagations=15776
%%%mzn-stat: nogoods=272
%%%mzn-stat: numAtomicConstraintsPropagated=0
%%%mzn-stat: allDifferentNumber1TotalHallSetSize=1364
%%%mzn-stat: allDifferentNumber1NumberOfConflicts=265
%%%mzn-stat: allDifferentNumber1MaxHallSetSize=18
%%%mzn-stat: allDifferentNumber1PropagationsTotal=2061
%%%mzn-stat: allDifferentNumber1PropagationsThatFoundConflict=265
%%%mzn-stat: circuitNumber2PropagationsThatFoundConflict=5
%%%mzn-stat: circuitNumber2TotalFixedEdgesAtConflict=80
%%%mzn-stat: circuitNumber2NumberOfConflicts=5
%%%mzn-stat: circuitNumber2PropagationsThatPruned=94
%%%mzn-stat: circuitNumber2PropagationsTotal=1135
%%%mzn-stat: AverageConflictSize=7.1213235294117645
%%%mzn-stat: NumUnitNogoodsLearned=0
%%%mzn-stat: AverageLearnedNogoodLength=8.911764705882353
%%%mzn-stat: AverageBacktrackAmount=0
%%%mzn-stat: AverageLbd=5.764705882352941
%%%mzn-stat: 2AutonomousSearchNumBackupCalled=1576
%%%mzn-stat: 2AutonomousSearchNumPredicatesRemoved=0
%%%mzn-stat: 2AutonomousSearchNumCalls=1589
%%%mzn-stat: 2AutonomousSearchNumPredicatesAdded=1603
%%%mzn-stat: 2AutonomousSearchAverageSizeOfHeap=3.0295783511642544
%%%mzn-stat: 2AutonomousSearchNumAssignedPredicatesEncountered=4814
%%%mzn-stat-end
maxleg = 345;
succ = array1d(1..20,[4, 5, 9, 12, 15, 7, 13, 6, 11, 3, 16, 18, 1, 8, 14, 17, 19, 10, 20, 2]);
% time elapsed: 0.25 s
----------
%%%mzn-stat: initTime=0.002931966
%%%mzn-stat: objective=335
%%%mzn-stat: nodes=2821
%%%mzn-stat: restarts=0
%%%mzn-stat: peakDepth=180
%%%mzn-stat: solveTime=0.01713659
%%%mzn-stat: variables=386
%%%mzn-stat: propagators=264
%%%mzn-stat: failures=277
%%%mzn-stat: propagations=16449
%%%mzn-stat: nogoods=277
%%%mzn-stat: numAtomicConstraintsPropagated=0
%%%mzn-stat: allDifferentNumber1TotalHallSetSize=1379
%%%mzn-stat: allDifferentNumber1NumberOfConflicts=269
%%%mzn-stat: allDifferentNumber1MaxHallSetSize=18
%%%mzn-stat: allDifferentNumber1PropagationsTotal=2101
%%%mzn-stat: allDifferentNumber1PropagationsThatFoundConflict=269
%%%mzn-stat: circuitNumber2PropagationsThatFoundConflict=6
%%%mzn-stat: circuitNumber2TotalFixedEdgesAtConflict=95
%%%mzn-stat: circuitNumber2NumberOfConflicts=6
%%%mzn-stat: circuitNumber2PropagationsThatPruned=102
%%%mzn-stat: circuitNumber2PropagationsTotal=1159
%%%mzn-stat: AverageConflictSize=7.1985559566787005
%%%mzn-stat: NumUnitNogoodsLearned=0
%%%mzn-stat: AverageLearnedNogoodLength=9.108303249097473
%%%mzn-stat: AverageBacktrackAmount=0
%%%mzn-stat: AverageLbd=5.772563176895307
%%%mzn-stat: 2AutonomousSearchNumBackupCalled=1656
%%%mzn-stat: 2AutonomousSearchNumPredicatesRemoved=0
%%%mzn-stat: 2AutonomousSearchNumCalls=1670
%%%mzn-stat: 2AutonomousSearchNumPredicatesAdded=1742
%%%mzn-stat: 2AutonomousSearchAverageSizeOfHeap=3.202395209580838
%%%mzn-stat: 2AutonomousSearchNumAssignedPredicatesEncountered=5348
%%%mzn-stat-end
maxleg = 335;
succ = array1d(1..20,[4, 5, 9, 12, 15, 7, 13, 6, 11, 16, 17, 18, 1, 8, 14, 3, 19, 10, 20, 2]);
% time elapsed: 0.25 s
----------
==========
% time elapsed: 0.25 s
%%%mzn-stat: initTime=0.002931966
%%%mzn-stat: objective=335
%%%mzn-stat: nodes=2821
%%%mzn-stat: restarts=0
%%%mzn-stat: peakDepth=180
%%%mzn-stat: solveTime=0.017265723
%%%mzn-stat: variables=386
%%%mzn-stat: propagators=264
%%%mzn-stat: failures=278
%%%mzn-stat: propagations=16626
%%%mzn-stat: nogoods=278
%%%mzn-stat: numAtomicConstraintsPropagated=0
%%%mzn-stat: allDifferentNumber1TotalHallSetSize=1399
%%%mzn-stat: allDifferentNumber1NumberOfConflicts=270
%%%mzn-stat: allDifferentNumber1MaxHallSetSize=20
%%%mzn-stat: allDifferentNumber1PropagationsTotal=2103
%%%mzn-stat: allDifferentNumber1PropagationsThatFoundConflict=270
%%%mzn-stat: circuitNumber2PropagationsThatFoundConflict=6
%%%mzn-stat: circuitNumber2TotalFixedEdgesAtConflict=95
%%%mzn-stat: circuitNumber2NumberOfConflicts=6
%%%mzn-stat: circuitNumber2PropagationsThatPruned=102
%%%mzn-stat: circuitNumber2PropagationsTotal=1160
%%%mzn-stat: AverageConflictSize=7.244604316546763
%%%mzn-stat: NumUnitNogoodsLearned=1
%%%mzn-stat: AverageLearnedNogoodLength=9.079136690647482
%%%mzn-stat: AverageBacktrackAmount=0
%%%mzn-stat: AverageLbd=5.755395683453237
%%%mzn-stat: 2AutonomousSearchNumBackupCalled=1656
%%%mzn-stat: 2AutonomousSearchNumPredicatesRemoved=0
%%%mzn-stat: 2AutonomousSearchNumCalls=1670
%%%mzn-stat: 2AutonomousSearchNumPredicatesAdded=1896
%%%mzn-stat: 2AutonomousSearchAverageSizeOfHeap=3.202395209580838
%%%mzn-stat: 2AutonomousSearchNumAssignedPredicatesEncountered=5348
%%%mzn-stat-end
